3208 2639
9935 5915
1964 8888
3215 5653
856 5149
4427 6127
2096 3049
5495 5879
3585 6580
5922 1327
1861 6239
6335 8293
2791 7329
8753 2586
5421 1048
1474 5747
9711 400
2874 578
4021 7223
5340 7649
5576 1064
2915 3127
9213 5148
7848 5627
6393 3370
4139 4804
9035 4470
9105 3265
8101 7308
308 2661
3932 4395
4931 1009
5606 8100
6033 5894
3786 6693
7657 4787
5824 6263
4801 2995
7926 1595
117 9930
5141 2234
3518 4181
3402 3872
2019 4169
5082 5052
4703 5513
926 6987
8504 8185
1004 2885
5178 5669
